Cost: 442
0-32-22-28-3-36-35-20-2-11-0
0-27-1-8-26-7-23-24-6-0
0-38-9-16-29-21-34-30-39-10-5-0
0-12-37-15-17-0
0-14-25-13-19-4-18-0
Cost: 442
0-5-10-39-30-34-21-29-16-9-38-0
0-6-24-23-7-26-8-1-27-0
0-11-2-20-35-36-3-28-22-32-0
0-14-25-13-19-4-18-0
0-12-37-15-17-0
Cost: 442
0-32-22-28-3-36-35-20-2-11-0
0-27-1-8-26-7-23-24-6-0
0-38-9-16-29-21-34-30-39-10-5-0
0-12-37-15-17-0
0-14-25-13-19-4-18-0
Cost: 442
0-18-4-19-13-25-14-0
0-27-1-8-26-7-23-24-6-0
0-32-22-28-3-36-35-20-2-11-0
0-5-10-39-30-34-21-29-16-9-38-0
0-17-15-37-12-0
Cost: 442
0-17-15-37-12-0
0-11-2-20-35-36-3-28-22-32-0
0-38-9-16-29-21-34-30-39-10-5-0
0-6-24-23-7-26-8-1-27-0
0-18-4-19-13-25-14-0
Cost: 442
0-12-37-15-17-0
0-32-22-28-3-36-35-20-2-11-0
0-6-24-23-7-26-8-1-27-0
0-5-10-39-30-34-21-29-16-9-38-0
0-18-4-19-13-25-14-0
Cost: 442
0-5-10-39-30-34-21-29-16-9-38-0
0-12-37-15-17-0
0-6-24-23-7-26-8-1-27-0
0-14-25-13-19-4-18-0
0-32-22-28-3-36-35-20-2-11-0
Cost: 442
0-5-10-39-30-34-21-29-16-9-38-0
0-12-37-15-17-0
0-6-24-23-7-26-8-1-27-0
0-14-25-13-19-4-18-0
0-32-22-28-3-36-35-20-2-11-0
Cost: 442
0-5-10-39-30-34-21-29-16-9-38-0
0-12-37-15-17-0
0-6-24-23-7-26-8-1-27-0
0-14-25-13-19-4-18-0
0-32-22-28-3-36-35-20-2-11-0
Cost: 442
0-5-10-39-30-34-21-29-16-9-38-0
0-12-37-15-17-0
0-6-24-23-7-26-8-1-27-0
0-14-25-13-19-4-18-0
0-32-22-28-3-36-35-20-2-11-0
Cost: 442
0-11-2-20-35-36-3-28-22-32-0
0-6-24-23-7-26-8-1-27-0
0-5-10-39-30-34-21-29-16-9-38-0
0-18-4-19-13-25-14-0
0-17-15-37-12-0
Cost: 442
0-11-2-20-35-36-3-28-22-32-0
0-6-24-23-7-26-8-1-27-0
0-5-10-39-30-34-21-29-16-9-38-0
0-18-4-19-13-25-14-0
0-17-15-37-12-0
Cost: 442
0-11-2-20-35-36-3-28-22-32-0
0-6-24-23-7-26-8-1-27-0
0-5-10-39-30-34-21-29-16-9-38-0
0-18-4-19-13-25-14-0
0-17-15-37-12-0
Cost: 442
0-11-2-20-35-36-3-28-22-32-0
0-6-24-23-7-26-8-1-27-0
0-5-10-39-30-34-21-29-16-9-38-0
0-18-4-19-13-25-14-0
0-17-15-37-12-0
Cost: 442
0-11-2-20-35-36-3-28-22-32-0
0-6-24-23-7-26-8-1-27-0
0-5-10-39-30-34-21-29-16-9-38-0
0-18-4-19-13-25-14-0
0-17-15-37-12-0
Cost: 442
0-11-2-20-35-36-3-28-22-32-0
0-6-24-23-7-26-8-1-27-0
0-5-10-39-30-34-21-29-16-9-38-0
0-18-4-19-13-25-14-0
0-17-15-37-12-0
Cost: 442
0-11-2-20-35-36-3-28-22-32-0
0-6-24-23-7-26-8-1-27-0
0-5-10-39-30-34-21-29-16-9-38-0
0-18-4-19-13-25-14-0
0-17-15-37-12-0
Cost: 442
0-11-2-20-35-36-3-28-22-32-0
0-6-24-23-7-26-8-1-27-0
0-5-10-39-30-34-21-29-16-9-38-0
0-18-4-19-13-25-14-0
0-17-15-37-12-0
Cost: 442
0-11-2-20-35-36-3-28-22-32-0
0-6-24-23-7-26-8-1-27-0
0-5-10-39-30-34-21-29-16-9-38-0
0-18-4-19-13-25-14-0
0-17-15-37-12-0
Cost: 442
0-11-2-20-35-36-3-28-22-32-0
0-6-24-23-7-26-8-1-27-0
0-5-10-39-30-34-21-29-16-9-38-0
0-18-4-19-13-25-14-0
0-17-15-37-12-0
Cost: 442
0-11-2-20-35-36-3-28-22-32-0
0-6-24-23-7-26-8-1-27-0
0-5-10-39-30-34-21-29-16-9-38-0
0-18-4-19-13-25-14-0
0-17-15-37-12-0
Cost: 442
0-11-2-20-35-36-3-28-22-32-0
0-6-24-23-7-26-8-1-27-0
0-5-10-39-30-34-21-29-16-9-38-0
0-18-4-19-13-25-14-0
0-17-15-37-12-0
Cost: 442
0-18-4-19-13-25-14-0
0-32-22-28-3-36-35-20-2-11-0
0-6-24-23-7-26-8-1-27-0
0-38-9-16-29-21-34-30-39-10-5-0
0-17-15-37-12-0
Cost: 442
0-11-2-20-35-36-3-28-22-32-0
0-6-24-23-7-26-8-1-27-0
0-5-10-39-30-34-21-29-16-9-38-0
0-18-4-19-13-25-14-0
0-17-15-37-12-0
Cost: 442
0-11-2-20-35-36-3-28-22-32-0
0-6-24-23-7-26-8-1-27-0
0-5-10-39-30-34-21-29-16-9-38-0
0-18-4-19-13-25-14-0
0-17-15-37-12-0
Cost: 442
0-11-2-20-35-36-3-28-22-32-0
0-6-24-23-7-26-8-1-27-0
0-5-10-39-30-34-21-29-16-9-38-0
0-18-4-19-13-25-14-0
0-17-15-37-12-0
Cost: 442
0-12-37-15-17-0
0-18-4-19-13-25-14-0
0-5-10-39-30-34-21-29-16-9-38-0
0-27-1-8-26-7-23-24-6-0
0-11-2-20-35-36-3-28-22-32-0
Cost: 442
0-38-9-16-29-21-34-30-39-10-5-0
0-6-24-23-7-26-8-1-27-0
0-12-37-15-17-0
0-14-25-13-19-4-18-0
0-11-2-20-35-36-3-28-22-32-0
Cost: 442
0-5-10-39-30-34-21-29-16-9-38-0
0-17-15-37-12-0
0-14-25-13-19-4-18-0
0-11-2-20-35-36-3-28-22-32-0
0-6-24-23-7-26-8-1-27-0
Cost: 442
0-5-10-39-30-34-21-29-16-9-38-0
0-6-24-23-7-26-8-1-27-0
0-11-2-20-35-36-3-28-22-32-0
0-14-25-13-19-4-18-0
0-12-37-15-17-0
Cost: 442
0-18-4-19-13-25-14-0
0-11-2-20-35-36-3-28-22-32-0
0-27-1-8-26-7-23-24-6-0
0-17-15-37-12-0
0-5-10-39-30-34-21-29-16-9-38-0
